23	3

11	5	8	

0	0	0	0	5	2	3	4	5	6	
3	0	0	1	2	7	8	
1	4	1	0	1	9	
4	0	5	0	2	10	11	
1	8	1	0	1	12	
1	0	0	2	2	13	14	
2	0	0	2	1	15	
2	0	0	1	1	16	
3	4	2	0	1	16	
3	0	0	2	1	17	
1	0	0	1	1	18	
3	6	3	0	2	18	19	
2	0	1	1	1	19	
3	0	0	3	1	20	
1	3	1	2	1	23	
1	3	1	0	1	21	
2	4	2	4	2	21	22	
2	7	2	0	1	22	
1	4	0	1	1	20	
1	0	0	3	1	23	
1	4	1	2	1	23	
1	4	1	3	1	23	
0	0	0	0	0	
